10.0 10.0
10.0 8.0 2.1
10.0 8.08 8.60 4.82
10.0 1.5 0.6 4.0 1.2 8.2 4.3
10.0 4.0 0.6 8.2 4.3 1.2 1.5
10.0 4.0 0.6 8.2 4.3 1.2 1.5
10.0 2.0 5.0 4.0 7.0 1.0 3.0 8.0
10.0 8.88 1.7 3.64 5.96 7.07 6.56 3.53 6.51
10.0 8.71 3.01 4.03 0.95 2.51 8.55 8.27 3.68 1.13
10.0 8.7 0.0 5.9 2.0 0.3 0.8 8.1 0.5 9.3 5.0
8.8 8.71 3.01 4.03 0.95 2.51 8.55 8.27 3.68 1.13
9.0 8.71 3.01 4.03 0.95 2.51 8.55 8.27 3.68 1.13
10.5 8.71 3.01 4.03 0.95 2.51 8.55 8.27 3.68 1.13
11.0 8.71 3.01 4.03 0.95 2.51 8.55 8.27 3.68 1.13
14.0 8.71 3.01 4.03 0.95 2.51 8.55 8.27 3.68 1.13